(set-logic ALL)
(declare-fun i1 () Int)
(declare-fun it186 () Int)
(declare-fun it187 () Int)
(declare-fun it15 () Int)
(declare-fun it188 () Int)
(declare-fun it14 () Int)
(declare-fun it13 () Int)
(declare-fun it189 () Int)
(declare-fun bt213 () Bool)
(declare-fun bt214 () Bool)
(declare-fun bt215 () Bool)
(declare-fun bt216 () Bool)
(declare-fun it17 () Int)
(declare-fun it16 () Int)
(declare-fun it18 () Int)
(declare-fun bt25 () Bool)
(declare-fun bt28 () Bool)
(declare-fun bt26 () Bool)
(declare-fun bt27 () Bool)
(declare-fun it193 () Int)
(declare-fun it194 () Int)
(declare-fun it195 () Int)
(declare-fun it196 () Int)
(declare-fun bt217 () Bool)
(declare-fun bt218 () Bool)
(declare-fun bt219 () Bool)
(declare-fun bt220 () Bool)
(declare-fun it356 () Int)
(declare-fun it358 () Int)
(declare-fun it359 () Int)
(declare-fun it360 () Int)
(declare-fun it361 () Int)
(declare-fun bt405 () Bool)
(declare-fun bt406 () Bool)
(declare-fun bt407 () Bool)
(declare-fun bt408 () Bool)
(declare-fun it199 () Int)
(declare-fun it198 () Int)
(declare-fun bt224 () Bool)
(declare-fun bt222 () Bool)
(declare-fun bt221 () Bool)
(declare-fun it197 () Int)
(declare-fun bt223 () Bool)
(assert (= (+ i1 (- 1)) 0))
(assert (= (+ it186 (- 2)) 0))
(assert (= (+ (* it15 (- 1)) it187) 0))
(assert (= (+ (* it14 (- 1)) it188) 0))
(assert (= (+ it189 (* it13 (- 1))) 0))
(assert (or (not bt213) (and false bt213)))
(assert (or bt214 (and false (not bt214))))
(assert (or (not bt215) (and false bt215)))
(assert (or (not bt216) (and false bt216)))
(assert (and bt27
     (not bt26)
     (not bt28)
     (not bt25)
     (= (+ it18 (- 1)) 0)
     (= (+ it189 (* it16 (- 1))) 0)
     (not bt213)
     (= (+ (* it17 (- 1)) it188) 0)
     (not bt215)
     (= (+ it186 (- 2)) 0)
     (not bt216)
     bt214))
(assert (= (+ it193 (- 2)) 0))
(assert (= (+ (* it18 (- 1)) it194) 0))
(assert (= (+ it195 (* it17 (- 1))) 0))
(assert (= (+ (* it16 (- 1)) it196) 0))
(assert (or (and (not bt27) (not bt217)) (and bt27 bt217)))
(assert (or (and (not bt28) (not bt218)) (and bt28 bt218)))
(assert (or (and (not bt26) (not bt219)) (and bt26 bt219)))
(assert (or (and (not bt25) (not bt220)) (and bt25 bt220)))
(assert (let ((a!1 (+ (+ 0 it196)
              (* (exp 3 (+ it356 (- 1))) (+ 0 it194) (+ 0 (- 1))))))
  (and (not bt218)
       bt217
       (> a!1 (+ 0 0))
       (>= (+ (* it193 (- 1)) 2) 0)
       (> (+ it196 (* it194 (- 1))) 0)
       (not bt219)
       (>= (+ it193 (- 2)) 0)
       (>= (* it195 (- 1)) 0)
       (not bt220)
       (>= (+ it356 (- 1)) 0))))
(assert (= (+ it358 (* it193 (- 1))) 0))
(assert (= (+ (* (+ 0 it194) (exp 3 it356) (+ 0 (- 1))) (+ 0 it359))
   (+ 0 0)))
(assert (= (+ (* it195 (- 1)) it360) 0))
(assert (= (+ it361 (* it196 (- 1))) 0))
(assert (or bt405 (and false (not bt405))))
(assert (or (and false bt406) (not bt406)))
(assert (or (not bt407) (and false bt407)))
(assert (or (not bt408) (and false bt408)))
(assert (let ((a!1 (and (= (+ (* it359 2) (* it197 (- 1))) 0)
                bt221
                (not bt224)
                bt223
                (= (+ (* it198 (- 1)) it360) 0)
                (not bt222)
                (= (+ it361 (* it199 (- 1))) 0)))
      (a!2 (and bt221
                bt222
                (not bt224)
                bt223
                (= (+ (* it198 (- 1)) it360) 0)
                (= (+ (* it359 3) (* it197 (- 1))) 0)
                (= (+ it361 (* it199 (- 1))) 0)))
      (a!3 (and (not bt223)
                bt222
                (not bt224)
                (= (+ (* it198 (- 1)) it360) 0)
                (= (+ it197 (- 1)) 0)
                (= (+ it361 (* it199 (- 1))) 0)
                (not bt221)))
      (a!4 (and (not bt223) (= (+ it359 (* it197 (- 1))) 0)))
      (a!10 (and (= (+ it359 (* it197 (- 1))) 0)
                 (not bt224)
                 bt223
                 (= (+ (* it198 (- 1)) it360) 0)
                 (not bt222)
                 (= (+ it361 (* it199 (- 1))) 0)
                 (not bt221)))
      (a!11 (and (= (+ it359 (* it197 (- 1))) 0)
                 bt222
                 (not bt224)
                 bt223
                 (= (+ (* it198 (- 1)) it360) 0)
                 (= (+ it361 (* it199 (- 1))) 0)
                 (not bt221)))
      (a!12 (and (= (+ it359 (* it197 (- 1))) 0)
                 bt221
                 (not bt224)
                 bt223
                 (= (+ (* it198 (- 1)) it360) 0)
                 (not bt222)
                 (= (+ it361 (* it199 (- 1))) 0))))
(let ((a!5 (and (and (and a!4 bt221) bt222)
                (not bt224)
                (= (+ (* it198 (- 1)) it360) 0)
                (= (+ it361 (* it199 (- 1))) 0)))
      (a!7 (and a!4
                (not bt224)
                (= (+ (* it198 (- 1)) it360) 0)
                (not bt222)
                (= (+ it361 (* it199 (- 1))) 0)
                (not bt221)))
      (a!8 (and (and (and a!4 bt221) bt222)
                bt224
                (= (+ (* it198 (- 1)) it360) 0)
                (= (+ it361 (* it199 (- 1))) 0)))
      (a!9 (and (and a!4 bt222)
                (not bt224)
                (= (+ (* it198 (- 1)) it360) 0)
                (= (+ it361 (* it199 (- 1))) 0)
                (not bt221)))
      (a!13 (and a!4
                 bt224
                 (= (+ (* it198 (- 1)) it360) 0)
                 (not bt222)
                 (= (+ it361 (* it199 (- 1))) 0)
                 (not bt221)))
      (a!15 (and (and a!4 bt221)
                 bt224
                 (= (+ (* it198 (- 1)) it360) 0)
                 (not bt222)
                 (= (+ it361 (* it199 (- 1))) 0)))
      (a!16 (and (and a!4 bt222)
                 bt224
                 (= (+ (* it198 (- 1)) it360) 0)
                 (= (+ it361 (* it199 (- 1))) 0)
                 (not bt221))))
(let ((a!6 (or bt406
               (<= (+ it361 (* it359 (- 1))) 0)
               (not bt405)
               bt407
               a!5
               bt408))
      (a!14 (or (or bt406 (not bt405))
                bt407
                bt408
                (> (+ it361 (* it359 (- 1))) 0)
                a!13)))
  (and (= (+ it358 (- 2)) 0)
       (or (or bt406 bt405) (not bt407) a!1 bt408)
       (or (or bt406 (not bt405)) (not bt407) bt408 a!2)
       (or bt405 (not bt406) a!3 bt407 bt408)
       a!6
       (or (or bt406 bt405) bt407 bt408 a!7)
       (or (not bt408) (not bt406) (not bt405) a!8 bt407)
       (or bt405 a!9 (not bt406) (not bt407) bt408)
       (or a!10 (<= it360 0) (not bt406) (not bt405) bt407 bt408)
       (or (> it360 0) a!11 (not bt406) (not bt405) bt407 bt408)
       (or a!12 (not bt406) (not bt405) (not bt407) bt408)
       a!14
       (or (<= it359 0) (not bt408) bt406 bt405 bt407 a!15)
       (or (or (not bt408) bt406) (not bt405) bt407 a!7)
       (or a!16 (not bt408) bt405 (not bt406) bt407)
       (or (or (not bt408) bt406) bt405 (> it359 0) a!8 bt407))))))
(check-sat)
